p cnf 44 81
1 2 3 4 5 6 7 8 9 10 0
-26 11 0
-27 12 0
-28 13 0
-29 14 0
-30 15 0
-21 11 0
-22 12 0
-23 13 0
-24 14 0
-25 15 0
-21 -26 12 0
-21 -27 13 0
-21 -28 14 0
-21 -29 15 0
-21 -30 16 0
-22 -26 13 0
-22 -27 14 0
-22 -28 15 0
-22 -29 16 0
-22 -30 17 0
-23 -26 14 0
-23 -27 15 0
-23 -28 16 0
-23 -29 17 0
-23 -30 18 0
-24 -26 15 0
-24 -27 16 0
-24 -28 17 0
-24 -29 18 0
-24 -30 19 0
-25 -26 16 0
-25 -27 17 0
-25 -28 18 0
-25 -29 19 0
-25 -30 20 0
-34 26 0
-35 27 0
-31 26 0
-32 27 0
-33 28 0
-31 -34 27 0
-31 -35 28 0
-32 -34 28 0
-32 -35 29 0
-33 -34 29 0
-33 -35 30 0
-10 34 0
-9 34 0
-9 -10 35 0
-8 31 0
-36 31 0
-37 32 0
-36 -8 32 0
-37 -8 33 0
-7 36 0
-6 36 0
-6 -7 37 0
-41 21 0
-42 22 0
-38 21 0
-39 22 0
-40 23 0
-38 -41 22 0
-38 -42 23 0
-39 -41 23 0
-39 -42 24 0
-40 -41 24 0
-40 -42 25 0
-5 41 0
-4 41 0
-4 -5 42 0
-3 38 0
-43 38 0
-44 39 0
-43 -3 39 0
-44 -3 40 0
-2 43 0
-1 43 0
-1 -2 44 0
-12 0
